(define-fun
  h5
  ((x Int)) Int x)
(define-fun
  h4
  ((x Int)) Int x)
(define-fun
  h3
  ((x Int)) Int x)
(define-fun
  h0
  ((x Int)) Int x)
(define-fun
  g2
  ((x Int) (y Int)) Int y)
(define-fun
  g1
  ((x Int)) Int x)
(define-fun
  f5
  ((x Int) (y Int)) Int
  (-
    (+
      (div (+ (+ (+ (div x (+ 2 (* 2 (+ 2 (+ 2 2))))) 2) x) x)
        (+ (+ 2 1) 2))
      x)
    y))
(define-fun-rec
  u5
  ((x Int) (y Int)) Int (ite (<= x 0) y (f5 (u5 (- x 1) y) x)))
(define-fun
  v5
  ((x Int)) Int (u5 2 x))
(define-fun
  f4
  ((x Int)) Int (+ (+ (mod (+ (+ (mod (v5 x) 2) 1) x) 2) 2) x))
(define-fun-rec
  u4
  ((x Int) (y Int)) Int (ite (<= x 0) y (f4 (u4 (- x 1) y))))
(define-fun
  v4
  ((x Int)) Int (u4 2 x))
(define-fun
  f3
  ((x Int)) Int (- (+ (mod (+ (v4 x) x) 2) x) 1))
(define-fun-rec
  u3
  ((x Int) (y Int)) Int (ite (<= x 0) y (f3 (u3 (- x 1) y))))
(define-fun
  v3
  ((x Int)) Int (u3 2 x))
(define-fun
  fast
  ((x Int)) Int (mod (+ (+ (v3 x) 1) x) 2))
(define-fun
  f2
  ((x Int) (y Int)) Int (+ 1 (div (* y y) (+ (+ x y) y))))
(define-fun-rec
  u2
  ((x Int) (y Int)) Int (ite (<= x 0) y (f2 (u2 (- x 1) y) x)))
(define-fun
  v2
  ((x Int) (y Int)) Int (u2 y 1))
(define-fun
  f1
  ((x Int) (y Int)) Int (+ (v2 x y) (div x 2)))
(define-fun-rec
  u1
  ((x Int) (y Int)) Int (ite (<= x 0) y (f1 (u1 (- x 1) y) x)))
(define-fun
  v1
  ((x Int)) Int (u1 x 0))
(define-fun
  f0
  ((x Int)) Int (+ (+ (mod (+ (v1 x) 1) 2) 1) x))
(define-fun-rec
  u0
  ((x Int) (y Int)) Int (ite (<= x 0) y (f0 (u0 (- x 1) y))))
(define-fun
  v0
  ((x Int)) Int (u0 2 x))
(define-fun
  small
  ((x Int)) Int (div (- (- (v0 x) x) 1) 2))
(assert-not
  (forall ((c Int)) (or (not (>= c 0)) (= (small c) (fast c)))))
